50346.26,54.91,66.59
45796.67,60.37,73.21
40579.23,68.13,82.62
41769.14,66.19,80.26
48482.75,57.02,69.15
44618.5,61.96,75.14
52468.69,52.69,63.9
42136.09,65.61,79.57
48482.07,57.02,69.15
50729.28,54.5,66.09
45630.62,60.59,73.47
47783.47,57.86,70.16
44389.93,62.28,75.53
48989.58,56.43,68.44
49624.23,55.71,67.56
51201.03,54.0,65.48
45076.81,61.33,74.38
49884.11,55.42,67.21
40955.92,67.5,81.86
47262.76,58.49,70.94
